# Objective value = 9
WA1n 0
WA1p 0
WA2n 1
WA2p 0
WB1n 0
WB1p 0
WB2n 1
WB2p 0
WC1n 0
WC1p 1
WD1n 2
WD1p 0
WD2n 0
WD2p 0
WE1n 2
WE1p 0
WE2n 0
WE2p 0
WT1n 0
WT1p 0
100 101
a 1
b 1
c 1
d 1
e 1
f 0
g 0
h 0
i 0
j 1
